Geographic Exponential Decay
80 100 245 55 105 178 201 23 231 167 107 164 80 293 302 30 189 73 163 261 92 315 295 266 207 270 6 227 25 259 139 82 256 192 75 66 85 3 20 314 110 77 150 279 182 118 282 225 54 237 90 160 301 102 43 308 303 50 135 288 114 246 97 46 284 154 144 233 283 310 300 179 4 17 41 12 45 117 128 149 0
p edge 320 320
e 0 6 9.0
e 0 282 28.0
e 0 169 87.0
e 1 281 1.0
e 1 0 6.0
e 2 119 5.0
e 2 1 8.0
e 3 298 88.0
e 3 85 17.0
e 3 309 84.0
e 3 2 53.0
e 4 250 51.0
e 4 70 40.0
e 4 131 82.0
e 4 3 26.0
e 5 139 15.0
e 5 4 15.0
e 6 161 9.0
e 6 148 51.0
e 7 48 1.0
e 7 5 7.0
e 8 203 2.0
e 8 7 1.0
e 9 167 99.0
e 9 8 1.0
e 10 66 87.0
e 10 9 4.0
e 11 27 2.0
e 11 10 5.0
e 12 301 20.0
e 12 13 26.0
e 12 52 3.0
e 12 11 63.0
e 14 35 1.0
e 14 12 63.0
e 15 231 45.0
e 16 276 1.0
e 16 14 1.0
e 17 18 33.0
e 17 214 75.0
e 17 103 74.0
e 17 16 61.0
e 19 154 58.0
e 19 17 17.0
e 20 263 53.0
e 20 124 60.0
e 20 139 59.0
e 21 296 8.0
e 21 19 1.0
e 22 76 1.0
e 22 21 1.0
e 23 65 73.0
e 23 291 88.0
e 23 57 98.0
e 23 22 4.0
e 24 66 10.0
e 25 154 53.0
e 25 26 90.0
e 25 166 89.0
e 28 294 6.0
e 28 23 22.0
e 29 289 22.0
e 29 28 10.0
e 30 233 21.0
e 30 36 67.0
e 30 31 68.0
e 32 222 1.0
e 32 29 8.0
e 33 84 1.0
e 33 32 3.0
e 34 108 1.0
e 34 33 4.0
e 37 142 4.0
e 37 34 1.0
e 38 153 3.0
e 38 37 3.0
e 39 186 5.0
e 39 38 4.0
e 40 41 57.0
e 40 39 11.0
e 41 42 73.0
e 41 102 48.0
e 43 242 96.0
e 43 251 31.0
e 43 92 74.0
e 43 40 27.0
e 44 187 10.0
e 44 43 29.0
e 45 77 35.0
e 45 46 65.0
e 45 195 36.0
e 46 92 10.0
e 46 47 1.0
e 49 122 1.0
e 49 44 10.0
e 50 234 75.0
e 50 226 21.0
e 50 252 100.0
e 50 49 9.0
e 51 53 1.0
e 51 50 19.0
e 54 300 20.0
e 54 205 80.0
e 54 273 59.0
e 55 56 8.0
e 55 282 63.0
e 55 233 93.0
e 58 92 59.0
e 59 184 1.0
e 59 51 7.0
e 60 162 1.0
e 60 59 1.0
e 61 299 1.0
e 61 60 3.0
e 62 305 1.0
e 62 61 5.0
e 63 201 15.0
e 63 62 1.0
e 64 66 100.0
e 67 135 82.0
e 68 301 65.0
e 69 267 16.0
e 69 63 12.0
e 71 207 38.0
e 71 69 19.0
e 72 204 2.0
e 72 71 3.0
e 73 167 83.0
e 73 88 47.0
e 73 104 45.0
e 74 304 5.0
e 74 72 2.0
e 75 126 31.0
e 75 101 44.0
e 75 77 68.0
e 77 284 92.0
e 78 201 34.0
e 79 244 5.0
e 79 74 4.0
e 80 81 71.0
e 80 120 25.0
e 80 82 33.0
e 80 79 89.0
e 82 277 91.0
e 82 278 97.0
e 83 266 32.0
e 85 211 11.0
e 85 91 90.0
e 86 265 1.0
e 86 80 90.0
e 87 208 7.0
e 87 86 5.0
e 89 282 30.0
e 90 269 50.0
e 90 249 14.0
e 90 216 41.0
e 90 87 75.0
e 93 158 1.0
e 93 90 96.0
e 94 95 4.0
e 94 93 1.0
e 96 97 97.0
e 96 94 9.0
e 97 312 62.0
e 97 98 85.0
e 99 268 3.0
e 99 96 12.0
e 100 102 92.0
e 100 223 93.0
e 100 105 26.0
e 102 283 6.0
e 105 106 91.0
e 105 290 27.0
e 107 295 40.0
e 107 159 81.0
e 107 167 36.0
e 109 246 77.0
e 110 128 29.0
e 110 111 76.0
e 110 163 3.0
e 112 113 10.0
e 112 99 8.0
e 114 115 83.0
e 114 302 57.0
e 114 227 44.0
e 116 117 75.0
e 117 227 94.0
e 117 175 86.0
e 118 121 24.0
e 118 123 88.0
e 118 125 1.0
e 118 112 73.0
e 127 293 70.0
e 127 118 80.0
e 128 129 44.0
e 128 130 67.0
e 132 133 1.0
e 132 127 2.0
e 134 293 35.0
e 135 227 39.0
e 135 136 45.0
e 137 138 6.0
e 137 132 1.0
e 139 141 46.0
e 140 155 1.0
e 140 137 2.0
e 143 144 19.0
e 143 140 6.0
e 144 264 69.0
e 144 274 76.0
e 145 243 6.0
e 145 143 5.0
e 146 300 45.0
e 147 149 67.0
e 149 245 26.0
e 149 156 16.0
e 150 315 31.0
e 150 151 77.0
e 150 220 35.0
e 152 280 1.0
e 152 145 1.0
e 154 248 56.0
e 157 196 1.0
e 157 152 1.0
e 160 163 29.0
e 160 198 73.0
e 160 300 79.0
e 163 164 43.0
e 164 165 79.0
e 164 283 32.0
e 168 206 2.0
e 168 157 1.0
e 170 224 1.0
e 170 168 1.0
e 171 172 2.0
e 171 170 4.0
e 173 174 1.0
e 173 171 5.0
e 176 253 1.0
e 176 173 3.0
e 177 258 1.0
e 177 176 3.0
e 178 179 24.0
e 178 180 15.0
e 178 306 10.0
e 178 177 30.0
e 179 181 84.0
e 179 182 40.0
e 182 183 71.0
e 182 313 89.0
e 185 188 1.0
e 185 178 17.0
e 189 236 69.0
e 189 190 3.0
e 189 191 28.0
e 189 185 55.0
e 192 193 41.0
e 192 194 11.0
e 192 197 19.0
e 192 189 65.0
e 199 254 3.0
e 199 192 66.0
e 200 295 61.0
e 201 202 5.0
e 207 275 56.0
e 207 221 32.0
e 209 303 75.0
e 210 238 2.0
e 210 199 2.0
e 212 213 6.0
e 212 210 5.0
e 215 217 3.0
e 215 212 4.0
e 218 219 3.0
e 218 215 2.0
e 225 228 18.0
e 225 230 77.0
e 225 229 50.0
e 225 218 45.0
e 231 232 64.0
e 231 233 12.0
e 235 237 70.0
e 235 225 26.0
e 237 239 4.0
e 237 240 27.0
e 241 245 96.0
e 245 246 71.0
e 246 284 23.0
e 247 255 1.0
e 247 235 3.0
e 256 287 97.0
e 256 257 82.0
e 256 259 74.0
e 259 260 2.0
e 259 279 16.0
e 261 262 55.0
e 261 295 4.0
e 261 266 100.0
e 266 270 74.0
e 270 271 67.0
e 270 310 41.0
e 272 279 4.0
e 279 283 40.0
e 284 285 68.0
e 286 288 96.0
e 288 292 49.0
e 288 293 6.0
e 296 297 9.0
e 301 302 29.0
e 302 303 20.0
e 303 307 64.0
e 308 310 5.0
e 308 311 92.0
e 308 314 41.0
e 310 314 46.0
e 314 315 64.0
e 315 316 75.0
e 317 318 6.0
e 317 247 1.0
e 319 317 1.0
